certificates/rado_a7_c131_N19.drat
-19 0
17 0
-5 0
3 0
7 0
-15 0
13 0
-1 0
-18 0
16 0
14 0
10 0
6 0
-4 0
-2 0
0
